NAME : portcgen-30-21
COMMENT : portcgen N=30, seed=21
TYPE : TSP
DIMENSION : 30
EDGE_WEIGHT_TYPE : EUC_2D
NODE_COORD_SECTION
1 -123384 90148
2 -123257 174390
3 28097 166912
4 9209 122745
5 53329 -62850
6 -204907 275078
7 122004 -43934
8 -119899 124164
9 -47510 40986
10 127360 231068
11 129446 -385299
12 76110 -56917
13 162012 -453203
14 222304 -126050
15 489987 245505
16 290351 -99112
17 273313 17251
18 -284693 -65049
19 71918 -1979
20 -214353 73895
21 -68540 -58975
22 276152 197382
23 -81795 -303309
24 156074 -49739
25 162244 -226748
26 -218024 -166793
27 7882 -105646
28 -169070 -150543
29 246015 38254
30 -361261 71873
